unsat
(:added-eqs                   3777
 :arith-eq-adapter            64
 :arith-bound-propagations-lp 982
 :arith-branch                978
 :arith-conflicts             1177
 :arith-cube-calls            461
 :arith-diseq                 1663
 :arith-fixed-eqs             1370
 :arith-gcd-calls             1876
 :arith-gcd-conflict          32
 :arith-gomory-cuts           1384
 :arith-hnf-calls             9
 :arith-lower                 21271
 :arith-make-feasible         11363
 :arith-max-columns           101
 :arith-max-rows              56
 :arith-nla-propagate-bounds  4
 :arith-offset-eqs            383
 :arith-patches               1844
 :arith-patches-success       4
 :arith-upper                 22996
 :binary-propagations         29553
 :conflicts                   1185
 :decisions                   6429
 :del-clause                  1996
 :final-checks                1876
 :max-memory                  19.92
 :memory                      17.64
 :minimized-lits              139
 :mk-bool-var                 2734
 :mk-clause                   2023
 :mk-clause-binary            1898
 :num-allocs                  237134657
 :num-checks                  1
 :propagations                37785
 :restarts                    10
 :rlimit-count                402928
 :time                        0.83
 :total-time                  0.73)
